100
1000
150
0 0
34 26
34 26
34 26
34 26
34 26
34 26
34 26
34 26
34 26
34 26
34 26
34 26
34 26
34 26
34 26
-28 20
-28 20
-28 20
-28 20
-28 20
-28 20
-28 20
-28 20
-28 20
-28 20
-28 20
-28 20
-28 20
-28 20
-28 20
-19 -37
-19 -37
-19 -37
-19 -37
-19 -37
-19 -37
-19 -37
-19 -37
-19 -37
-19 -37
-19 -37
-19 -37
-19 -37
-19 -37
-19 -37
-16 18
-16 18
-16 18
-16 18
-16 18
-16 18
-16 18
-16 18
-16 18
-16 18
-16 18
-16 18
-16 18
-16 18
-16 18
-19 24
-19 24
-19 24
-19 24
-19 24
-19 24
-19 24
-19 24
-19 24
-19 24
-19 24
-19 24
-19 24
-19 24
-19 24
32 -19
-32 23
-1 10
-19 4
-11 -34
33 -4
17 -17
-28 15
27 -8
-36 33
12 -33
-13 -40
-13 -25
34 -40
-31 -29
32 -19
-32 23
-1 10
-19 4
-11 -34
33 -4
17 -17
-28 15
27 -8
-36 33
12 -33
-13 -40
-13 -25
34 -40
-31 -29
32 -19
-32 23
-1 10
-19 4
-11 -34
33 -4
17 -17
-28 15
27 -8
-36 33
12 -33
-13 -40
-13 -25
34 -40
-31 -29
32 -19
-32 23
-1 10
-19 4
-11 -34
33 -4
17 -17
-28 15
27 -8
-36 33
12 -33
-13 -40
-13 -25
34 -40
-31 -29
32 -19
-32 23
-1 10
-19 4
-11 -34
33 -4
17 -17
-28 15
27 -8
-36 33
12 -33
-13 -40
-13 -25
34 -40
-31 -29
0 0 
54
56
53
56
53
59
52
57
59
57
53
54
60
52
60
60
52
56
52
56
57
53
56
56
54
56
56
53
59
57
55
56
59
56
56
54
51
56
54
56
56
51
57
53
55
57
56
54
59
57
53
56
57
56
54
59
54
52
56
59
53
53
54
52
51
56
55
52
53
53
56
56
53
53
56
54
56
53
56
53
59
52
57
59
57
53
54
60
52
60
60
52
56
52
56
57
53
56
56
54
56
56
53
59
57
55
56
59
56
56
54
51
56
54
56
56
51
57
53
55
57
56
54
59
57
53
56
57
56
54
59
54
52
56
59
53
53
54
52
51
56
55
52
53
53
56
56
53
53
56
